NAME : n150w40.003.727.tour
COMMENT : Length = 727
COMMENT : Found by LKH [Keld Helsgaun] Tue May  2 05:18:31 2017
TYPE : TOUR
DIMENSION : 151
TOUR_SECTION
1
87
139
143
16
142
95
71
14
44
89
88
36
54
72
52
81
104
39
141
125
76
64
5
18
34
23
62
7
121
75
86
29
93
30
97
21
127
6
47
108
59
107
31
140
80
3
26
124
137
60
42
96
146
24
129
84
22
35
49
19
82
114
136
103
111
123
138
122
46
98
38
2
131
69
58
130
70
78
33
112
25
56
118
119
147
109
20
43
120
132
77
144
106
94
135
53
12
51
45
9
101
117
61
37
113
27
85
17
74
32
115
102
65
73
99
105
13
110
50
149
133
68
4
10
134
92
57
148
145
15
8
63
11
41
55
90
91
66
116
126
79
83
100
48
67
150
40
128
151
28
-1
EOF
